
n_res = 4;
rcap = [34, 33, 298, 292];
rtype = [1, 1, 2, 2];
n_tasks = 50;
modes =  [{1, 2, 3}, {4, 5, 6}, {7, 8, 9}, {10, 11, 12}, {13, 14, 15}, {16, 17, 18}, {19, 20, 21}, {22, 23, 24}, {25, 26, 27}, {28, 29, 30}, {31, 32, 33}, {34, 35, 36}, {37, 38, 39}, {40, 41, 42}, {43, 44, 45}, {46, 47, 48}, {49, 50, 51}, {52, 53, 54}, {55, 56, 57}, {58, 59, 60}, {61, 62, 63}, {64, 65, 66}, {67, 68, 69}, {70, 71, 72}, {73, 74, 75}, {76, 77, 78}, {79, 80, 81}, {82, 83, 84}, {85, 86, 87}, {88, 89, 90}, {91, 92, 93}, {94, 95, 96}, {97, 98, 99}, {100, 101, 102}, {103, 104, 105}, {106, 107, 108}, {109, 110, 111}, {112, 113, 114}, {115, 116, 117}, {118, 119, 120}, {121, 122, 123}, {124, 125, 126}, {127, 128, 129}, {130, 131, 132}, {133, 134, 135}, {136, 137, 138}, {139, 140, 141}, {142, 143, 144}, {145, 146, 147}, {148, 149, 150}];
succ =  [{32, 29, 27, 26, 23, 22, 21, 20, 18, 16, 9}, {32, 30, 26, 20, 19, 18, 8}, {23, 20, 18, 9, 8}, {30, 19, 18, 17, 7}, {32, 29, 27, 21, 9}, {29, 27, 23, 22, 9}, {32, 28, 26, 20, 10}, {22, 16, 10}, {40, 39, 31, 30, 25, 24, 19}, {50, 39, 33, 31, 29, 27, 25, 24}, {38, 30, 29, 27, 24, 19}, {50, 49, 39, 38, 37, 36, 33, 31, 29, 28, 27}, {50, 49, 40, 39, 32, 31, 29, 28, 25}, {49, 40, 39, 38, 37, 31, 29, 19}, {49, 33, 29, 26, 20}, {50, 49, 48, 40, 39, 34, 33, 25}, {49, 39, 38, 37, 36, 33, 31, 27}, {50, 39, 38, 35, 34, 33, 24}, {50, 48, 36, 35, 33, 28}, {50, 48, 40, 38, 37, 36, 34}, {48, 47, 39, 37, 36, 35, 34}, {48, 47, 39, 38, 36, 35, 31}, {49, 46, 40, 38, 36, 35, 34}, {49, 48, 47, 42, 41, 37, 36}, {47, 38, 37, 36, 35}, {50, 47, 39, 37, 35}, {48, 45, 40, 35, 34}, {47, 46, 44, 34}, {48, 45, 44, 35}, {44, 43, 42, 37}, {45, 44, 42, 41}, {45, 44, 43, 42}, {47, 46, 45}, {42, 41}, {43, 42}, {45, 44}, {46, 45}, {43, 42}, {45, 44}, {44, 42}, {43}, {}, {}, {}, {}, {}, {}, {}, {}, {}];
n_opt = 150;
dur = [4, 5, 6, 1, 4, 5, 2, 4, 10, 4, 6, 8, 3, 5, 8, 3, 4, 5, 2, 7, 8, 4, 5, 7, 3, 9, 10, 2, 3, 10, 5, 6, 9, 2, 3, 6, 1, 3, 10, 1, 5, 10, 1, 3, 9, 1, 2, 10, 3, 8, 9, 4, 5, 10, 1, 5, 9, 4, 5, 10, 2, 6, 7, 1, 1, 9, 1, 4, 7, 2, 9, 9, 1, 9, 10, 1, 2, 7, 2, 9, 10, 4, 5, 6, 1, 3, 8, 1, 6, 7, 3, 5, 6, 1, 2, 9, 5, 7, 10, 1, 2, 3, 3, 4, 10, 1, 5, 6, 5, 6, 10, 1, 2, 4, 6, 8, 10, 1, 5, 7, 1, 7, 8, 7, 8, 10, 4, 8, 10, 2, 5, 8, 1, 2, 9, 5, 6, 8, 6, 8, 8, 1, 5, 9, 2, 6, 10, 6, 7, 9];
rreq = [|9, 0, 1, 6, 6, 6, 0, 0, 7, 0, 3, 2, 7, 6, 0, 8, 0, 0, 0, 0, 2, 3, 1, 1, 0, 2, 2, 6, 6, 0, 0, 3, 2, 5, 0, 2, 0, 0, 3, 4, 0, 0, 3, 2, 1, 6, 6, 0, 0, 0, 2, 6, 0, 3, 0, 7, 7, 10, 0, 7, 0, 0, 3, 0, 5, 5, 0, 0, 5, 0, 0, 1, 0, 0, 3, 4, 4, 0, 0, 0, 0, 3, 2, 2, 6, 0, 4, 0, 4, 0, 3, 3, 1, 9, 9, 9, 0, 0, 0, 5, 5, 0, 0, 3, 2, 6, 5, 0, 6, 6, 6, 0, 0, 4, 5, 0, 2, 0, 0, 0, 0, 0, 0, 10, 7, 7, 0, 8, 8, 0, 0, 0, 5, 4, 0, 7, 6, 0, 2, 2, 0, 7, 7, 7, 3, 3, 3, 7, 4, 3
 |0, 6, 0, 0, 0, 0, 5, 5, 0, 9, 0, 0, 0, 0, 5, 0, 8, 6, 7, 4, 0, 0, 0, 0, 6, 0, 0, 0, 0, 5, 4, 0, 0, 0, 4, 0, 7, 7, 0, 0, 8, 8, 0, 0, 0, 0, 0, 4, 8, 5, 0, 0, 6, 0, 5, 0, 0, 0, 1, 0, 6, 3, 0, 3, 0, 0, 4, 2, 0, 1, 1, 0, 10, 8, 0, 0, 0, 7, 7, 4, 4, 0, 0, 0, 0, 3, 0, 9, 0, 7, 0, 0, 0, 0, 0, 0, 6, 4, 4, 0, 0, 4, 8, 0, 0, 0, 0, 3, 0, 0, 0, 7, 4, 0, 0, 3, 0, 8, 8, 7, 10, 8, 6, 0, 0, 0, 7, 0, 0, 9, 8, 8, 0, 0, 1, 0, 0, 7, 0, 0, 5, 0, 0, 0, 0, 0, 0, 0, 0, 0
 |5, 3, 3, 8, 7, 7, 8, 8, 7, 6, 6, 5, 7, 6, 5, 7, 5, 4, 9, 7, 6, 5, 4, 4, 3, 2, 2, 9, 9, 9, 9, 8, 8, 7, 6, 4, 6, 4, 3, 5, 3, 3, 8, 6, 4, 8, 8, 6, 8, 6, 3, 5, 2, 1, 5, 4, 2, 9, 6, 5, 6, 6, 6, 8, 6, 6, 6, 6, 3, 4, 4, 4, 8, 5, 4, 1, 1, 1, 1, 1, 1, 10, 7, 3, 8, 8, 8, 6, 4, 3, 3, 1, 1, 9, 8, 8, 3, 3, 3, 8, 7, 5, 8, 8, 8, 4, 4, 3, 8, 7, 6, 10, 9, 9, 7, 5, 5, 7, 5, 4, 9, 9, 9, 9, 8, 7, 2, 2, 1, 4, 3, 3, 6, 4, 2, 5, 3, 2, 7, 7, 7, 5, 3, 3, 7, 6, 6, 6, 5, 4
 |8, 5, 2, 4, 5, 4, 10, 9, 10, 7, 5, 5, 4, 4, 4, 4, 3, 3, 8, 4, 3, 3, 3, 2, 9, 6, 3, 3, 2, 2, 6, 3, 1, 6, 6, 5, 4, 2, 2, 8, 8, 4, 3, 1, 1, 8, 7, 4, 3, 2, 2, 6, 3, 2, 7, 5, 4, 6, 6, 6, 9, 9, 9, 6, 4, 3, 7, 7, 6, 9, 5, 2, 8, 7, 6, 9, 8, 9, 5, 3, 2, 9, 7, 3, 6, 4, 4, 7, 3, 3, 10, 6, 5, 7, 6, 5, 9, 7, 4, 5, 5, 3, 4, 3, 2, 7, 7, 6, 9, 6, 5, 6, 6, 5, 6, 4, 2, 10, 8, 7, 10, 6, 6, 10, 8, 8, 3, 3, 3, 7, 4, 3, 2, 2, 2, 2, 2, 2, 5, 4, 4, 7, 7, 6, 6, 6, 5, 4, 3, 2|];